gaiag/templates/html/snippets/blocking
<span class="keyword">blocking</span> #statement